16
1 40.56 25.32
2 38.42 13.11
3 35.49 14.32
4 36.08 -5.21
5 37.51 15.17
6 41.23 9.10
7 39.36 19.56
8 37.52 20.44
9 39.57 26.15
10 41.17 13.05
11 33.48 10.54
12 38.47 15.13
13 38.15 15.35
14 36.26 23.12
15 37.56 12.19
16 38.24 20.42
